
Log started (V12.10.0.0) Fri Apr  2 08:25:54 2021


Problem 'asset.lp' read.
Read time = 0.00 sec. (0.15 ticks)
New value for default parallel thread count: 1
New value for time limit in seconds: 300
Version identifier: 12.10.0.0 | 2019-11-26 | 843d4de
CPXPARAM_Threads                                 1
CPXPARAM_TimeLimit                               300
Found incumbent of value 0.000000 after 0.00 sec. (0.04 ticks)
Tried aggregator 3 times.
MIP Presolve eliminated 218 rows and 70 columns.
MIP Presolve modified 1266 coefficients.
Aggregator did 530 substitutions.
Reduced MIP has 646 rows, 747 columns, and 3156 nonzeros.
Reduced MIP has 646 binaries, 69 generals, 0 SOSs, and 0 indicators.
Presolve time = 0.01 sec. (6.69 ticks)
Probing fixed 176 vars, tightened 17 bounds.
Probing time = 0.00 sec. (2.67 ticks)
Cover probing fixed 0 vars, tightened 73 bounds.
Tried aggregator 3 times.
MIP Presolve eliminated 227 rows and 218 columns.
MIP Presolve modified 90 coefficients.
Aggregator did 5 substitutions.
Reduced MIP has 414 rows, 524 columns, and 1902 nonzeros.
Reduced MIP has 443 binaries, 52 generals, 0 SOSs, and 0 indicators.
Presolve time = 0.00 sec. (1.95 ticks)
Probing time = 0.00 sec. (1.43 ticks)
Tried aggregator 2 times.
Detecting symmetries...
MIP Presolve modified 128 coefficients.
Aggregator did 2 substitutions.
Reduced MIP has 412 rows, 522 columns, and 1898 nonzeros.
Reduced MIP has 443 binaries, 52 generals, 0 SOSs, and 0 indicators.
Presolve time = 0.00 sec. (1.61 ticks)
Probing time = 0.00 sec. (1.43 ticks)
Clique table members: 1459.
MIP emphasis: balance optimality and feasibility.
MIP search method: dynamic search.
Parallel mode: none, using 1 thread.
Root relaxation solution time = 0.00 sec. (3.06 ticks)

        Nodes                                         Cuts/
   Node  Left     Objective  IInf  Best Integer    Best Bound    ItCnt     Gap

*     0+    0                            0.0000      520.0000              --- 
      0     0      324.5442    90        0.0000      324.5442      273     --- 
      0     0      299.9085    90        0.0000     Cuts: 183      410     --- 
      0     0      295.1914    90        0.0000     Cuts: 133      506     --- 
      0     0      294.3966    90        0.0000      Cuts: 99      562     --- 
      0     0      292.4838    90        0.0000      Cuts: 90      599     --- 
      0     0      290.8341    90        0.0000      Cuts: 42      649     --- 
      0     0      290.1811    90        0.0000      Cuts: 63      698     --- 
*     0+    0                          175.0000      290.1811            65.82%
      0     0      289.7976    90      175.0000      Cuts: 77      742   65.60%
      0     0      289.3702    90      175.0000      Cuts: 21      792   65.35%
      0     0      289.3270    90      175.0000      Cuts: 50      815   65.33%
      0     0      289.3270    90      175.0000      Cuts: 32      834   65.33%
      0     0      289.0097    90      175.0000      Cuts: 20      874   65.15%
      0     0      288.9602    90      175.0000      Cuts: 48      908   65.12%
      0     0      288.8983    90      175.0000      Cuts: 36      932   65.08%
      0     0      288.8133    90      175.0000      Cuts: 35      949   65.04%
      0     0      288.7483    90      175.0000      Cuts: 15      973   65.00%
      0     0      288.6875    90      175.0000      Cuts: 29     1000   64.96%
      0     0      288.6209    90      175.0000      Cuts: 26     1026   64.93%
      0     0      288.5626    90      175.0000      Cuts: 41     1065   64.89%
      0     0      288.2330    90      175.0000      Cuts: 62     1103   64.70%
      0     0      287.1566    90      175.0000      Cuts: 41     1156   64.09%
      0     0      286.3226    90      175.0000     Cuts: 108     1254   63.61%
*     0+    0                          185.0000      286.3226            54.77%
      0     0      286.3035    90      185.0000      Cuts: 62     1322   54.76%
      0     2      286.3035    97      185.0000      286.3035     1322   54.76%
Elapsed time = 0.21 sec. (174.68 ticks, tree = 0.01 MB, solutions = 2)
*    80+   57                          200.0000      286.1363            43.07%
*    88    64      integral     0      210.0000      286.1363     2928   36.26%
    432   332      256.9877    48      210.0000      285.8954     8645   36.14%
    835   614      276.3081    96      210.0000      284.8792    16626   35.66%
*   918   595      integral     0      220.0000      284.8098    18003   29.46%
*  1018+  612                          225.0000      284.4426            26.42%

Performing restart 1

Repeating presolve.
Tried aggregator 2 times.
MIP Presolve modified 425 coefficients.
Aggregator did 4 substitutions.
Reduced MIP has 408 rows, 518 columns, and 1589 nonzeros.
Reduced MIP has 439 binaries, 52 generals, 0 SOSs, and 0 indicators.
Presolve time = 0.00 sec. (1.78 ticks)
Tried aggregator 1 time.
Reduced MIP has 408 rows, 518 columns, and 1589 nonzeros.
Reduced MIP has 439 binaries, 52 generals, 0 SOSs, and 0 indicators.
Presolve time = 0.00 sec. (1.23 ticks)
Represolve time = 0.01 sec. (9.08 ticks)
   1128     0      272.2052   104      225.0000     Cuts: 191    23165   20.98%
   1128     0      269.7186   104      225.0000     Cuts: 125    23277   19.87%
   1128     0      267.8354   104      225.0000     Cuts: 146    23354   19.04%
   1128     0      266.3123   104      225.0000      Cuts: 83    23432   18.36%
   1128     0      265.0877   104      225.0000      Cuts: 71    23478   17.82%
   1128     0      261.9538   104      225.0000      Cuts: 71    23591   16.42%
   1128     0      261.1484   104      225.0000      Cuts: 93    23656   16.07%
   1128     0      260.8401   104      225.0000      Cuts: 92    23705   15.93%
   1128     0      260.4585   104      225.0000      Cuts: 60    23747   15.76%
   1128     0      259.9979   104      225.0000      Cuts: 66    23816   15.55%
   1128     0      259.4375   104      225.0000      Cuts: 37    23846   15.31%
*  1128+    0                          230.0000      259.4375            12.80%
   1128     0      259.0363   104      230.0000      Cuts: 79    23888   12.62%
   1128     0      258.7702   104      230.0000      Cuts: 39    23935   12.51%
   1128     0      258.7052   104      230.0000      Cuts: 42    23971   12.48%
   1128     0      258.6475   104      230.0000      Cuts: 49    24024   12.46%
   1128     0      258.6462   104      230.0000      Cuts: 35    24057   12.45%
   1128     0      258.6097   104      230.0000      Cuts: 23    24098   12.44%
   1128     0      258.5871   104      230.0000      Cuts: 62    24132   12.43%
   1128     0      258.5850   104      230.0000      Cuts: 59    24151   12.43%
   1128     0      258.5400   104      230.0000      Cuts: 24    24189   12.41%
   1128     0      258.5249   104      230.0000      Cuts: 49    24220   12.40%
   1128     0      258.3605   104      230.0000      Cuts: 39    24277   12.33%
   1128     0      258.1862   104      230.0000      Cuts: 46    24307   12.25%
   1128     0      258.0138   104      230.0000      Cuts: 36    24334   12.18%
   1128     0      257.5456   104      230.0000      Cuts: 42    24354   11.98%
   1128     0      257.4277   104      230.0000      Cuts: 46    24376   11.93%
   1128     0      257.1788   104      230.0000      Cuts: 23    24408   11.82%
   1128     0      257.1003   104      230.0000      Cuts: 69    24437   11.78%
   1128     0      257.0412   104      230.0000      Cuts: 41    24470   11.76%
   1128     0      256.9803   104      230.0000      Cuts: 25    24503   11.73%
   1128     0      256.8877   104      230.0000      Cuts: 52    24544   11.69%
   1128     0      256.8248   104      230.0000      Cuts: 45    24581   11.66%
   1128     0      256.7579   104      230.0000      Cuts: 49    24614   11.63%
   1128     0      256.6647   104      230.0000      Cuts: 21    24638   11.59%
   1128     0      256.6101   104      230.0000      Cuts: 26    24668   11.57%
   1128     2      256.6101   130      230.0000      256.5743    24668   11.55%
   1138     9      248.1294    56      230.0000      255.2576    25304   10.98%
   1181    41      248.9108    31      230.0000      254.9328    26466   10.84%
   1278    94      242.3610    53      230.0000      251.4338    29537    9.32%
*  1321    85      integral     0      235.0000      250.0000    30442    6.38%
   1381    67      240.0941    68      235.0000      246.6184    33040    4.94%

GUB cover cuts applied:  6
Clique cuts applied:  46
Cover cuts applied:  13
Implied bound cuts applied:  11
Flow cuts applied:  7
Mixed integer rounding cuts applied:  56
Zero-half cuts applied:  50
Lift and project cuts applied:  15
Gomory fractional cuts applied:  3

Root node processing (before b&c):
  Real time             =    0.21 sec. (174.78 ticks)
Sequential b&c:
  Real time             =    2.57 sec. (2694.40 ticks)
                          ------------
Total (root+branch&cut) =    2.79 sec. (2869.18 ticks)

Solution pool: 9 solutions saved.

MIP - Integer optimal solution:  Objective =  2.3500000000e+02
Solution time =    2.79 sec.  Iterations = 35455  Nodes = 1506
Deterministic time = 2869.18 ticks  (1030.07 ticks/sec)


Incumbent solution
Variable Name           Solution Value
F                           235.000000
y75                           1.000000
y162                          1.000000
y175                          1.000000
y62                           1.000000
y266                          1.000000
y282                          1.000000
y19                           1.000000
y25                           1.000000
y233                          1.000000
y205                          1.000000
y64                           1.000000
y269                          1.000000
y209                          1.000000
y287                          1.000000
y1                            1.000000
x66x282x1                     1.000000
x66x233x1                     1.000000
x251x205x1                    1.000000
x187x64x1                     1.000000
x23x233x1                     1.000000
x306x269x1                    1.000000
x145x209x1                    1.000000
x164x1x1                      1.000000
x261x75x1                     1.000000
x187x175x2                    1.000000
x129x287x2                    1.000000
x128x287x2                    1.000000
x109x75x2                     1.000000
x109x175x2                    1.000000
x97x62x2                      1.000000
x23x266x3                     1.000000
x145x1x3                      1.000000
x128x209x3                    1.000000
x261x205x3                    1.000000
x84x162x3                     2.000000
x97x62x3                      1.000000
x75x282x1                     1.000000
x75x25x2                      1.000000
x162x19x3                     2.000000
x175x0x2                      2.000000
x62x25x2                      1.000000
x62x266x3                     1.000000
x266x0x3                      2.000000
x282x0x1                      2.000000
x19x0x3                       2.000000
x25x0x2                       2.000000
x233x0x1                      2.000000
x205x269x1                    1.000000
x205x64x3                     1.000000
x64x0x1                       1.000000
x64x0x3                       1.000000
x269x0x1                      2.000000
x209x0x1                      1.000000
x209x0x3                      1.000000
x287x0x2                      2.000000
x1x0x1                        1.000000
x1x0x3                        1.000000
s66                           6.908760
s282                          8.580000
z66z282z1                     1.000000
s233                          8.655842
z66z233z1                     1.000000
s149                          7.760000
s205                          7.821922
s55                           8.214341
s177                          8.860000
z66z177z1                     1.000000
s80                           7.870000
s229                          8.930000
s64                           8.990000
s250                          9.030000
s269                          9.280000
z66z269z1                     1.000000
s209                          9.470000
s1                            9.490000
s251                          6.409348
s45                           7.130000
s230                          7.160000
s295                          7.180000
s15                           7.220000
s12                           7.250000
s33                           7.290000
s75                           7.553333
s7                            8.073907
s141                          8.331125
s293                          7.400000
s68                           7.430000
s232                          7.500000
s111                          8.056183
z251z205z1                    1.000000
z251z55z1                     1.000000
z251z177z1                    1.000000
z251z269z1                    1.000000
s187                          6.727899
s175                          8.470000
z187z175z2                    1.000000
s62                           7.490000
s25                           8.620000
s30                           7.790000
s48                           7.990000
z187z64z1                     1.000000
s133                          9.070000
z187z269z1                    1.000000
s287                          9.470000
z187z287z2                    1.000000
s23                           7.183993
s162                          7.360000
s266                          8.514037
z23z266z3                     1.000000
s19                           8.402164
z23z233z1                     1.000000
s2                            7.900000
s186                          7.919697
z186z287z2                    1.000000
s306                          7.660055
z306z269z1                    1.000000
s129                          7.914536
z129z287z2                    1.000000
s145                          7.864345
z145z209z1                    1.000000
z145z1z3                      1.000000
s128                          7.927195
z128z209z3                    1.000000
z128z287z2                    1.000000
s164                          8.050087
z164z1z1                      1.000000
s261                          5.998830
s150                          7.300000
z261z75z1                     1.000000
z261z266z3                    1.000000
z261z282z1                    1.000000
z261z19z3                     1.000000
z261z233z1                    1.000000
z261z149z1                    1.000000
z261z205z3                    1.000000
z261z55z1                     1.000000
z261z177z1                    1.000000
z261z2z3                      1.000000
z261z269z1                    1.000000
s84                           5.681040
z84z162z3                     1.000000
z84z266z3                     1.000000
z84z19z3                      1.000000
z84z2z3                       1.000000
s109                          5.952700
z109z75z2                     1.000000
z109z175z2                    1.000000
z109z25z2                     1.000000
z109z30z2                     1.000000
z109z48z2                     1.000000
z109z287z2                    1.000000
s97                           5.952210
z97z62z2                      1.000000
z97z62z3                      1.000000
z97z266z3                     1.000000
z97z19z3                      1.000000
z97z25z2                      1.000000
z97z30z2                      1.000000
z97z2z3                       1.000000
z97z48z2                      1.000000
z97z287z2                     1.000000
z75z282z1                     1.000000
z75z25z2                      1.000000
z162z19z3                     1.000000
z62z266z3                     1.000000
z62z25z2                      1.000000
z149z269z1                    1.000000
z205z64z3                     1.000000
z205z269z1                    1.000000
z30z287z2                     1.000000
z55z269z1                     1.000000
All other variables in the range 1-1348 are 0.
